data/instances/vrp_files/train_68.vrp
NAME : 68
COMMENT : Generated instance No. 68
TYPE : CVRP
DIMENSION : 21
EDGE_WEIGHT_TYPE : EUC_2D
CAPACITY : 30
NODE_COORD_SECTION
 1 50 626
 2 335 76
 3 234 830
 4 948 304
 5 264 279
 6 277 35
 7 926 213
 8 420 9
 9 857 731
 10 946 781
 11 313 247
 12 697 364
 13 566 6
 14 61 535
 15 566 751
 16 131 513
 17 194 93
 18 410 163
 19 221 317
 20 259 87
 21 89 193
DEMAND_SECTION
1 0
2 5
3 7
4 10
5 7
6 4
7 5
8 3
9 4
10 4
11 3
12 10
13 5
14 5
15 7
16 4
17 4
18 9
19 6
20 4
21 2
DEPOT_SECTION
 1
 -1
EOF